c [-tl=1800000, -p=4, instances/xcsp3/FrequencyAllocationXCSP3-m3-celar_150_13_15_5_0.800000_8.xml]
c 4 solvers in parallel
c parse instance...
c solve instance...
o 714 
o 686 
o 672 
o 616 
o 392 
o 378 
o 364 
s OPTIMUM FOUND
v <instantiation>
v 	<list>T[0] T[1] T[2] T[3] T[4] T[5] T[6] T[7] T[8] T[9] T[10] T[11] T[12] T[13] T[14] T[15] T[16] T[17] T[18] T[19] T[20] T[21] T[22] T[23] T[24] T[25] T[26] T[27] T[28] T[29] T[30] T[31] T[32] T[33] T[34] T[35] T[36] T[37] T[38] T[39] T[40] T[41] T[42] T[43] T[44] T[45] T[46] T[47] T[48] T[49] T[50] T[51] T[52] T[53] T[54] T[55] T[56] T[57] T[58] T[59] T[60] T[61] T[62] T[63] T[64] T[65] T[66] T[67] T[68] T[69] T[70] T[71] T[72] T[73] T[74] T[75] T[76] T[77] T[78] T[79] T[80] T[81] T[82] T[83] T[84] T[85] T[86] T[87] T[88] T[89] T[90] T[91] T[92] T[93] T[94] T[95] T[96] T[97] T[98] T[99] T[100] T[101] T[102] T[103] T[104] T[105] T[106] T[107] T[108] T[109] T[110] T[111] T[112] T[113] T[114] T[115] T[116] T[117] T[118] T[119] T[120] T[121] T[122] T[123] T[124] T[125] T[126] T[127] T[128] T[129] T[130] T[131] T[132] T[133] T[134] T[135] T[136] T[137] T[138] T[139] T[140] T[141] T[142] T[143] T[144] T[145] T[146] T[147] T[148] T[149] R[0] R[1] R[2] R[3] R[4] R[5] R[6] R[7] R[8] R[9] R[10] R[11] R[12] R[13] R[14] R[15] R[16] R[17] R[18] R[19] R[20] R[21] R[22] R[23] R[24] R[25] R[26] R[27] R[28] R[29] R[30] R[31] R[32] R[33] R[34] R[35] R[36] R[37] R[38] R[39] R[40] R[41] R[42] R[43] R[44] R[45] R[46] R[47] R[48] R[49] R[50] R[51] R[52] R[53] R[54] R[55] R[56] R[57] R[58] R[59] R[60] R[61] R[62] R[63] R[64] R[65] R[66] R[67] R[68] R[69] R[70] R[71] R[72] R[73] R[74] R[75] R[76] R[77] R[78] R[79] R[80] R[81] R[82] R[83] R[84] R[85] R[86] R[87] R[88] R[89] R[90] R[91] R[92] R[93] R[94] R[95] R[96] R[97] R[98] R[99] R[100] R[101] R[102] R[103] R[104] R[105] R[106] R[107] R[108] R[109] R[110] R[111] R[112] R[113] R[114] R[115] R[116] R[117] R[118] R[119] R[120] R[121] R[122] R[123] R[124] R[125] R[126] R[127] R[128] R[129] R[130] R[131] R[132] R[133] R[134] R[135] R[136] R[137] R[138] R[139] R[140] R[141] R[142] R[143] R[144] R[145] R[146] R[147] R[148] R[149] span </list>
v 	<values>14 266 140 28 112 84 14 28 266 266 322 14 56 84 98 126 322 322 14 350 28 98 84 98 14 14 112 14 14 322 98 98 140 322 14 70 140 70 98 14 280 56 126 14 294 378 14 28 266 14 112 70 42 56 126 294 84 28 378 28 70 14 70 70 322 70 28 28 252 70 84 350 322 70 14 350 266 42 266 252 140 280 56 280 98 112 14 112 14 28 70 28 84 14 56 140 84 98 56 84 252 98 252 14 98 266 42 56 112 70 14 84 140 14 14 84 336 84 42 14 14 14 112 70 70 98 112 140 14 14 14 14 364 294 28 378 126 140 70 14 126 14 14 126 252 14 70 126 126 84 252 28 378 266 350 322 252 266 28 28 84 252 294 322 336 364 84 84 252 112 266 336 322 336 252 252 350 252 252 84 336 336 378 84 252 308 378 308 336 252 42 294 364 252 56 140 252 266 28 252 350 308 280 294 364 56 322 266 140 266 308 252 308 308 84 308 266 266 14 308 322 112 84 308 252 112 28 280 28 14 378 42 294 42 336 350 252 350 252 266 308 266 322 252 294 378 322 336 294 322 14 336 14 252 336 28 280 294 350 308 252 322 378 252 252 322 98 322 280 252 252 252 350 308 308 336 350 378 252 252 252 252 126 56 266 140 364 378 308 252 364 252 252 364 14 252 308 364 364 322 364 </values>
v </instantiation>
real 134.61
user 537.29
sys 4.12
